(set-logic HORN)
(set-info :source |
    Benchmark: C_VC
    Output by Princess (http://www.philipp.ruemmer.org/princess.shtml)
|)
(set-info :status sat)
(declare-fun inv_main109 (Int Int Int Int Int Int Int Int Int) Bool)
(declare-fun inv_main17 (Int Int Int Int Int Int Int Int Int) Bool)
(declare-fun inv_main3 (Int) Bool)
(declare-fun inv_main69 (Int Int Int Int Int Int Int Int Int) Bool)
(assert (forall ((var0 Int)) (inv_main3 var0)))
(assert (forall ((var0 Int) (var1 Int) (var2 Int) (var3 Int) (var4 Int) (var5 Int) (var6 Int) (var7 Int) (var8 Int)) (or (not (and (inv_main17 var8 var7 var6 var5 var4 var3 var2 var1 var0) (and (= var5 0) (and (not (= var6 (- 1))) (and (= var8 8544) (and (not (= var8 8528)) (and (not (= var8 8512)) (and (not (= var8 8496)) (and (not (= var8 8466)) (or (not (<= 0 (+ 8512 (* (- 1) var8)))) (not (<= 0 (+ (+ var1 (- 2)) (- 1)))))))))))))) (inv_main69 var8 var7 var6 var5 var4 var3 var2 var1 var0))))
(assert (forall ((var0 Int) (var1 Int) (var2 Int) (var3 Int) (var4 Int) (var5 Int) (var6 Int) (var7 Int) (var8 Int)) (or (not (and (inv_main17 var8 var7 var6 var5 var4 var3 var2 var1 var0) (and (= var6 (- 4)) (and (not (= var5 0)) (and (not (= var6 (- 1))) (and (= var8 8544) (and (not (= var8 8528)) (and (not (= var8 8512)) (and (not (= var8 8496)) (and (not (= var8 8466)) (or (not (<= 0 (+ 8512 (* (- 1) var8)))) (not (<= 0 (+ (+ var1 (- 2)) (- 1))))))))))))))) (inv_main69 var8 var7 var6 var5 var4 var3 var2 var1 var0))))
(assert (forall ((var0 Int) (var1 Int) (var2 Int) (var3 Int) (var4 Int) (var5 Int) (var6 Int) (var7 Int) (var8 Int)) (or (not (and (inv_main17 var8 var7 var6 var5 var4 var3 var2 var1 var0) (and (<= 0 (+ 8512 (* (- 1) var8))) (<= 0 (+ (+ var1 (- 2)) (- 1)))))) (inv_main109 var8 var7 var6 var5 var4 var3 var2 var1 var0))))
(assert (forall ((var0 Int) (var1 Int) (var2 Int) (var3 Int) (var4 Int) (var5 Int) (var6 Int) (var7 Int) (var8 Int)) (or (not (and (inv_main17 var8 var7 var6 var5 var4 var3 var2 var1 var0) (and (= var1 5) (and (not (= var1 4)) (and (= var8 8672) (and (not (= var8 8656)) (and (not (= var8 8640)) (and (not (= var8 8608)) (and (not (= var8 8592)) (and (not (= var8 8576)) (and (not (= var8 8560)) (and (not (= var8 8544)) (and (not (= var8 8528)) (and (not (= var8 8512)) (and (not (= var8 8496)) (and (not (= var8 8466)) (or (not (<= 0 (+ 8512 (* (- 1) var8)))) (not (<= 0 (+ (+ var1 (- 2)) (- 1))))))))))))))))))))) (inv_main109 var8 var7 var6 var5 var4 var3 var2 var1 var0))))
(assert (forall ((var0 Int) (var1 Int) (var2 Int) (var3 Int) (var4 Int) (var5 Int) (var6 Int) (var7 Int) (var8 Int)) (or (not (and (inv_main17 var8 var7 var6 var5 var4 var3 var2 var1 var0) (and (= var8 8512) (and (not (= var8 8496)) (and (not (= var8 8466)) (or (not (<= 0 (+ 8512 (* (- 1) var8)))) (not (<= 0 (+ (+ var1 (- 2)) (- 1)))))))))) (inv_main17 8528 var7 var6 var5 var4 var3 var2 var1 var0))))
(assert (forall ((var0 Int) (var1 Int) (var2 Int) (var3 Int) (var4 Int) (var5 Int) (var6 Int) (var7 Int) (var8 Int)) (or (not (and (inv_main17 var8 var7 var6 var5 var4 var3 var2 var1 var0) (and (= var8 8528) (and (not (= var8 8512)) (and (not (= var8 8496)) (and (not (= var8 8466)) (or (not (<= 0 (+ 8512 (* (- 1) var8)))) (not (<= 0 (+ (+ var1 (- 2)) (- 1))))))))))) (inv_main17 8544 var7 var6 var5 var4 var3 var2 var1 var0))))
(assert (forall ((var0 Int) (var1 Int) (var2 Int) (var3 Int) (var4 Int) (var5 Int) (var6 Int) (var7 Int) (var8 Int)) (or (not (and (inv_main17 var8 var7 var6 var5 var4 var3 var2 var1 var0) (and (= var8 8560) (and (not (= var8 8544)) (and (not (= var8 8528)) (and (not (= var8 8512)) (and (not (= var8 8496)) (and (not (= var8 8466)) (or (not (<= 0 (+ 8512 (* (- 1) var8)))) (not (<= 0 (+ (+ var1 (- 2)) (- 1))))))))))))) (inv_main17 8576 var7 var6 var5 var4 var3 var2 var1 var0))))
(assert (forall ((var0 Int) (var1 Int) (var2 Int) (var3 Int) (var4 Int) (var5 Int) (var6 Int) (var7 Int) (var8 Int)) (or (not (and (inv_main17 var8 var7 var6 var5 var4 var3 var2 var1 var0) (and (= var8 8592) (and (not (= var8 8576)) (and (not (= var8 8560)) (and (not (= var8 8544)) (and (not (= var8 8528)) (and (not (= var8 8512)) (and (not (= var8 8496)) (and (not (= var8 8466)) (or (not (<= 0 (+ 8512 (* (- 1) var8)))) (not (<= 0 (+ (+ var1 (- 2)) (- 1))))))))))))))) (inv_main17 8608 var7 var6 var5 var4 var3 var2 var1 var0))))
(assert (forall ((var0 Int) (var1 Int) (var2 Int) (var3 Int) (var4 Int) (var5 Int) (var6 Int) (var7 Int) (var8 Int)) (or (not (and (inv_main17 var8 var7 var6 var5 var4 var3 var2 var1 var0) (and (= var8 8608) (and (not (= var8 8592)) (and (not (= var8 8576)) (and (not (= var8 8560)) (and (not (= var8 8544)) (and (not (= var8 8528)) (and (not (= var8 8512)) (and (not (= var8 8496)) (and (not (= var8 8466)) (or (not (<= 0 (+ 8512 (* (- 1) var8)))) (not (<= 0 (+ (+ var1 (- 2)) (- 1)))))))))))))))) (inv_main17 8640 var7 var6 var5 var4 var3 var2 var1 var0))))
(assert (forall ((var0 Int) (var1 Int) (var2 Int) (var3 Int) (var4 Int) (var5 Int) (var6 Int) (var7 Int) (var8 Int)) (or (not (and (inv_main17 var8 var7 var6 var5 var4 var3 var2 var1 var0) (and (= var1 0) (and (= var8 8466) (or (not (<= 0 (+ 8512 (* (- 1) var8)))) (not (<= 0 (+ (+ var1 (- 2)) (- 1))))))))) (inv_main17 8496 var7 var6 var5 var4 var3 var2 1 var0))))
(assert (forall ((var0 Int) (var1 Int) (var2 Int) (var3 Int) (var4 Int) (var5 Int) (var6 Int) (var7 Int) (var8 Int)) (or (not (and (inv_main17 var8 var7 var6 var5 var4 var3 var2 var1 var0) (and (not (= var1 0)) (and (= var8 8466) (or (not (<= 0 (+ 8512 (* (- 1) var8)))) (not (<= 0 (+ (+ var1 (- 2)) (- 1))))))))) (inv_main17 8496 var7 var6 var5 var4 var3 var2 var1 var0))))
(assert (forall ((var0 Int) (var1 Int) (var2 Int) (var3 Int) (var4 Int) (var5 Int) (var6 Int) (var7 Int) (var8 Int)) (or (not (and (inv_main17 var8 var7 var6 var5 var4 var3 var2 var1 var0) (and (not (= var7 0)) (and (= var1 1) (and (= var8 8496) (and (not (= var8 8466)) (or (not (<= 0 (+ 8512 (* (- 1) var8)))) (not (<= 0 (+ (+ var1 (- 2)) (- 1))))))))))) (inv_main17 8656 var7 var6 var5 var4 var3 var2 2 var0))))
(assert (forall ((var0 Int) (var1 Int) (var2 Int) (var3 Int) (var4 Int) (var5 Int) (var6 Int) (var7 Int) (var8 Int)) (or (not (and (inv_main17 var8 var7 var6 var5 var4 var3 var2 var1 var0) (and (= var7 0) (and (= var1 1) (and (= var8 8496) (and (not (= var8 8466)) (or (not (<= 0 (+ 8512 (* (- 1) var8)))) (not (<= 0 (+ (+ var1 (- 2)) (- 1))))))))))) (inv_main17 8512 var7 var6 var5 var4 var3 var2 2 var0))))
(assert (forall ((var0 Int) (var1 Int) (var2 Int) (var3 Int) (var4 Int) (var5 Int) (var6 Int) (var7 Int) (var8 Int)) (or (not (and (inv_main17 var8 var7 var6 var5 var4 var3 var2 var1 var0) (and (not (= var7 0)) (and (not (= var1 1)) (and (= var8 8496) (and (not (= var8 8466)) (or (not (<= 0 (+ 8512 (* (- 1) var8)))) (not (<= 0 (+ (+ var1 (- 2)) (- 1))))))))))) (inv_main17 8656 var7 var6 var5 var4 var3 var2 var1 var0))))
(assert (forall ((var0 Int) (var1 Int) (var2 Int) (var3 Int) (var4 Int) (var5 Int) (var6 Int) (var7 Int) (var8 Int)) (or (not (and (inv_main17 var8 var7 var6 var5 var4 var3 var2 var1 var0) (and (= var7 0) (and (not (= var1 1)) (and (= var8 8496) (and (not (= var8 8466)) (or (not (<= 0 (+ 8512 (* (- 1) var8)))) (not (<= 0 (+ (+ var1 (- 2)) (- 1))))))))))) (inv_main17 8512 var7 var6 var5 var4 var3 var2 var1 var0))))
(assert (forall ((var0 Int) (var1 Int) (var2 Int) (var3 Int) (var4 Int) (var5 Int) (var6 Int) (var7 Int) (var8 Int) (var9 Int)) (or (not (and (inv_main17 var9 var8 var7 var6 var5 var4 var3 var2 var1) (and (= var0 2) (and (= var9 8576) (and (not (= var9 8560)) (and (not (= var9 8544)) (and (not (= var9 8528)) (and (not (= var9 8512)) (and (not (= var9 8496)) (and (not (= var9 8466)) (or (not (<= 0 (+ 8512 (* (- 1) var9)))) (not (<= 0 (+ (+ var2 (- 2)) (- 1))))))))))))))) (inv_main17 8466 var8 var7 var6 var5 var4 var3 var2 var0))))
(assert (forall ((var0 Int) (var1 Int) (var2 Int) (var3 Int) (var4 Int) (var5 Int) (var6 Int) (var7 Int) (var8 Int) (var9 Int)) (or (not (and (inv_main17 var9 var8 var7 var6 var5 var4 var3 var2 var1) (and (not (= var0 2)) (and (= var9 8576) (and (not (= var9 8560)) (and (not (= var9 8544)) (and (not (= var9 8528)) (and (not (= var9 8512)) (and (not (= var9 8496)) (and (not (= var9 8466)) (or (not (<= 0 (+ 8512 (* (- 1) var9)))) (not (<= 0 (+ (+ var2 (- 2)) (- 1))))))))))))))) (inv_main17 8592 var8 var7 var6 var5 var4 var3 var2 var0))))
(assert (forall ((var0 Int) (var1 Int) (var2 Int) (var3 Int) (var4 Int) (var5 Int) (var6 Int) (var7 Int) (var8 Int)) (or (not (and (inv_main17 var8 var7 var6 var5 var4 var3 var2 var1 var0) (and (= var7 0) (and (= var1 3) (and (= var8 8640) (and (not (= var8 8608)) (and (not (= var8 8592)) (and (not (= var8 8576)) (and (not (= var8 8560)) (and (not (= var8 8544)) (and (not (= var8 8528)) (and (not (= var8 8512)) (and (not (= var8 8496)) (and (not (= var8 8466)) (or (not (<= 0 (+ 8512 (* (- 1) var8)))) (not (<= 0 (+ (+ var1 (- 2)) (- 1))))))))))))))))))) (inv_main17 8656 var7 var6 var5 var4 var3 var2 4 var0))))
(assert (forall ((var0 Int) (var1 Int) (var2 Int) (var3 Int) (var4 Int) (var5 Int) (var6 Int) (var7 Int) (var8 Int)) (or (not (and (inv_main17 var8 var7 var6 var5 var4 var3 var2 var1 var0) (and (= var7 0) (and (not (= var1 3)) (and (= var8 8640) (and (not (= var8 8608)) (and (not (= var8 8592)) (and (not (= var8 8576)) (and (not (= var8 8560)) (and (not (= var8 8544)) (and (not (= var8 8528)) (and (not (= var8 8512)) (and (not (= var8 8496)) (and (not (= var8 8466)) (or (not (<= 0 (+ 8512 (* (- 1) var8)))) (not (<= 0 (+ (+ var1 (- 2)) (- 1))))))))))))))))))) (inv_main17 8656 var7 var6 var5 var4 var3 var2 var1 var0))))
(assert (forall ((var0 Int) (var1 Int) (var2 Int) (var3 Int) (var4 Int) (var5 Int) (var6 Int) (var7 Int) (var8 Int)) (or (not (and (inv_main17 var8 var7 var6 var5 var4 var3 var2 var1 var0) (and (= var1 2) (and (= var8 8656) (and (not (= var8 8640)) (and (not (= var8 8608)) (and (not (= var8 8592)) (and (not (= var8 8576)) (and (not (= var8 8560)) (and (not (= var8 8544)) (and (not (= var8 8528)) (and (not (= var8 8512)) (and (not (= var8 8496)) (and (not (= var8 8466)) (or (not (<= 0 (+ 8512 (* (- 1) var8)))) (not (<= 0 (+ (+ var1 (- 2)) (- 1))))))))))))))))))) (inv_main17 8672 var7 var6 var5 var4 var3 var2 3 var0))))
(assert (forall ((var0 Int) (var1 Int) (var2 Int) (var3 Int) (var4 Int) (var5 Int) (var6 Int) (var7 Int) (var8 Int)) (or (not (and (inv_main17 var8 var7 var6 var5 var4 var3 var2 var1 var0) (and (not (= var1 2)) (and (= var8 8656) (and (not (= var8 8640)) (and (not (= var8 8608)) (and (not (= var8 8592)) (and (not (= var8 8576)) (and (not (= var8 8560)) (and (not (= var8 8544)) (and (not (= var8 8528)) (and (not (= var8 8512)) (and (not (= var8 8496)) (and (not (= var8 8466)) (or (not (<= 0 (+ 8512 (* (- 1) var8)))) (not (<= 0 (+ (+ var1 (- 2)) (- 1))))))))))))))))))) (inv_main17 8672 var7 var6 var5 var4 var3 var2 var1 var0))))
(assert (forall ((var0 Int) (var1 Int) (var2 Int) (var3 Int) (var4 Int) (var5 Int) (var6 Int) (var7 Int) (var8 Int)) (or (not (and (inv_main17 var8 var7 var6 var5 var4 var3 var2 var1 var0) (and (not (= var7 0)) (and (= var1 4) (and (= var8 8672) (and (not (= var8 8656)) (and (not (= var8 8640)) (and (not (= var8 8608)) (and (not (= var8 8592)) (and (not (= var8 8576)) (and (not (= var8 8560)) (and (not (= var8 8544)) (and (not (= var8 8528)) (and (not (= var8 8512)) (and (not (= var8 8496)) (and (not (= var8 8466)) (or (not (<= 0 (+ 8512 (* (- 1) var8)))) (not (<= 0 (+ (+ var1 (- 2)) (- 1))))))))))))))))))))) (inv_main17 8640 var7 var6 var5 var4 var3 var2 5 var0))))
(assert (forall ((var0 Int) (var1 Int) (var2 Int) (var3 Int) (var4 Int) (var5 Int) (var6 Int) (var7 Int) (var8 Int)) (or (not (and (inv_main17 var8 var7 var6 var5 var4 var3 var2 var1 var0) (and (not (= var7 0)) (and (not (= var1 5)) (and (not (= var1 4)) (and (= var8 8672) (and (not (= var8 8656)) (and (not (= var8 8640)) (and (not (= var8 8608)) (and (not (= var8 8592)) (and (not (= var8 8576)) (and (not (= var8 8560)) (and (not (= var8 8544)) (and (not (= var8 8528)) (and (not (= var8 8512)) (and (not (= var8 8496)) (and (not (= var8 8466)) (or (not (<= 0 (+ 8512 (* (- 1) var8)))) (not (<= 0 (+ (+ var1 (- 2)) (- 1)))))))))))))))))))))) (inv_main17 8640 var7 var6 var5 var4 var3 var2 var1 var0))))
(assert (forall ((var0 Int) (var1 Int) (var2 Int) (var3 Int) (var4 Int) (var5 Int) (var6 Int) (var7 Int) (var8 Int)) (or (not (and (inv_main17 var8 var7 var6 var5 var4 var3 var2 var1 var0) (and (= var6 (- 1)) (and (= var8 8544) (and (not (= var8 8528)) (and (not (= var8 8512)) (and (not (= var8 8496)) (and (not (= var8 8466)) (or (not (<= 0 (+ 8512 (* (- 1) var8)))) (not (<= 0 (+ (+ var1 (- 2)) (- 1))))))))))))) (inv_main17 8560 var7 var6 var5 var4 var3 var2 var1 var0))))
(assert (forall ((var0 Int) (var1 Int) (var2 Int) (var3 Int) (var4 Int) (var5 Int) (var6 Int) (var7 Int) (var8 Int)) (or (not (and (inv_main17 var8 var7 var6 var5 var4 var3 var2 var1 var0) (and (not (= var6 (- 4))) (and (not (= var5 0)) (and (not (= var6 (- 1))) (and (= var8 8544) (and (not (= var8 8528)) (and (not (= var8 8512)) (and (not (= var8 8496)) (and (not (= var8 8466)) (or (not (<= 0 (+ 8512 (* (- 1) var8)))) (not (<= 0 (+ (+ var1 (- 2)) (- 1))))))))))))))) (inv_main17 8560 var7 var6 var5 var4 var3 var2 var1 var0))))
(assert (forall ((var0 Int) (var1 Int) (var2 Int) (var3 Int) (var4 Int) (var5 Int) (var6 Int) (var7 Int) (var8 Int)) (or (not (and (inv_main69 var8 var7 var6 var5 var4 var3 var2 var1 var0) (and (= var6 (- 2)) (not (= var4 (- 256)))))) (inv_main17 8560 var7 var6 var5 var4 var3 var2 var1 var0))))
(assert (forall ((var0 Int) (var1 Int) (var2 Int) (var3 Int) (var4 Int) (var5 Int) (var6 Int) (var7 Int) (var8 Int)) (or (not (and (inv_main69 var8 var7 var6 var5 var4 var3 var2 var1 var0) (= var4 (- 256)))) (inv_main17 8576 var7 var6 var5 var4 var3 var2 var1 var0))))
(assert (forall ((var0 Int) (var1 Int) (var2 Int) (var3 Int) (var4 Int) (var5 Int) (var6 Int) (var7 Int) (var8 Int)) (or (not (and (inv_main69 var8 var7 var6 var5 var4 var3 var2 var1 var0) (and (not (= var6 (- 2))) (not (= var4 (- 256)))))) (inv_main17 8576 var7 var6 var5 var4 var3 var2 var1 var0))))
(assert (forall ((var0 Int) (var1 Int) (var2 Int) (var3 Int) (var4 Int) (var5 Int) (var6 Int) (var7 Int)) (or (not (inv_main3 var7)) (inv_main17 8466 var6 var5 var4 var3 var2 var1 0 var0))))
(assert (forall ((var0 Int) (var1 Int) (var2 Int) (var3 Int) (var4 Int) (var5 Int) (var6 Int) (var7 Int) (var8 Int)) (not (inv_main109 var8 var7 var6 var5 var4 var3 var2 var1 var0))))
(check-sat)
